Data path: /scratch/opt/lxu/CFLG/benchmarks/Kgroup_A
Instance: K100.10.red
Result path: /scratch/opt/lxu/CFLG/results/Kgroup_A
Solver: Gurobi
Time limit: 7200
Formulation: LEFPAD
Cover: Large
julia --project=. src/main.jl /scratch/opt/lxu/CFLG/benchmarks/Kgroup_A K100.10.red /scratch/opt/lxu/CFLG/results/Kgroup_A Gurobi 7200 LEFPAD Large
The latest version of Julia in the `release` channel is 1.11.5+0.x64.linux.gnu. You currently have `1.11.4+0.x64.linux.gnu` installed. Run:

  juliaup update

in your terminal shell to install Julia 1.11.5+0.x64.linux.gnu and update the `release` channel to that version.
/scratch/opt/lxu/CFLG/benchmarks/Kgroup_A Gurobi 7200.0 /scratch/opt/lxu/CFLG/results/Kgroup_A K100.10.red LEFPAD Large
/scratch/opt/lxu/CFLG/benchmarks/Kgroup_A/K100.10.red

 read graph
data loaded


after absorb:27 27

max_piece:4
problem_graph/original graph: node: 35/27 edge: 86/78 dlt: 0.7151160756201429 break_avg_len: 0.3242968249905303 break_max_len: 0.7151153605040672Vbar/V, Ebar/E(35, 35, 86, 86)
(2, 13)(2, 15)(2, 3)(3, 13)(3, 24)(3, 4)(3, 15)(3, 7)(3, 9)(4, 23)(5, 10)(5, 20)(1, 5)(5, 25)(5, 23)(4, 5)(5, 14)(5, 9)(6, 19)(6, 17)(7, 21)(2, 7)(7, 15)(1, 9)(2, 9)(4, 9)(7, 9)(9, 28)(14, 28)(9, 15)(9, 20)(9, 24)(1, 10)(10, 25)(10, 14)(9, 10)(2, 11)(3, 11)(11, 13)(11, 24)(1, 12)(13, 23)(12, 14)(16, 22)(8, 16)(17, 19)(18, 19)(17, 29)(18, 29)(18, 22)(6, 30)(18, 30)(16, 18)(8, 18)(19, 20)(17, 31)(20, 31)(20, 23)(4, 20)(6, 32)(20, 32)(1, 21)(12, 33)(21, 33)(15, 21)(8, 22)(2, 24)(15, 24)(7, 24)(1, 25)(14, 25)(9, 25)(12, 26)(18, 26)(22, 34)(26, 34)(14, 26)(5, 26)(16, 26)(8, 35)(26, 35)(10, 27)(1, 27)(25, 27)(14, 27)(26, 27)(Dict{Int64, Float64}(), Int64[], 35, 86)Set parameter TokenServer to value "solice01.zib.de"
Set parameter Threads to value 1
Set parameter OutputFlag to value 1
Gurobi Optimizer version 12.0.1 build v12.0.1rc0 (linux64 - "Debian GNU/Linux 12 (bookworm)")

CPU model: Intel(R) Xeon(R) Gold 5222 CPU @ 3.80GHz, instruction set [SSE2|AVX|AVX2|AVX512]
Thread count: 8 physical cores, 16 logical processors, using up to 1 threads

Non-default parameters:
Threads  1

Optimize a model with 121 rows, 258 columns and 430 nonzeros
Model fingerprint: 0xf6c58060
Coefficient statistics:
  Matrix range     [1e+00, 1e+00]
  Objective range  [1e+00, 1e+00]
  Bounds range     [1e+00, 1e+00]
  RHS range        [0e+00, 0e+00]
Presolve removed 121 rows and 258 columns
Presolve time: 0.02s
Presolve: All rows and columns removed
Iteration    Objective       Primal Inf.    Dual Inf.      Time
       0   -0.0000000e+00   0.000000e+00   0.000000e+00      0s

Solved in 0 iterations and 0.02 seconds (0.00 work units)
Optimal objective -0.000000000e+00

User-callback calls 35, time in user-callback 0.00 sec
elapsed CPU time: 1.220952 seconds
Set parameter TokenServer to value "solice01.zib.de"
Set parameter Threads to value 1
Set parameter OutputFlag to value 1
Set parameter MIPGap to value 0.0001
Set parameter MIPGapAbs to value 0.999998
Set parameter TimeLimit to value 7198.779048

 more cuts: false 0.7151160756201429 false
is_attach:trueformulation:LEFPAD0 86 0

 model loaded

Gurobi Optimizer version 12.0.1 build v12.0.1rc0 (linux64 - "Debian GNU/Linux 12 (bookworm)")

CPU model: Intel(R) Xeon(R) Gold 5222 CPU @ 3.80GHz, instruction set [SSE2|AVX|AVX2|AVX512]
Thread count: 8 physical cores, 16 logical processors, using up to 1 threads

Non-default parameters:
TimeLimit  7198.779048
MIPGapAbs  0.999998
Threads  1

Optimize a model with 8723 rows, 5683 columns and 25771 nonzeros
Model fingerprint: 0xa3f5c444
Variable types: 2824 continuous, 2859 integer (2859 binary)
Coefficient statistics:
  Matrix range     [7e-07, 1e+00]
  Objective range  [1e+00, 1e+00]
  Bounds range     [9e-03, 7e-01]
  RHS range        [9e-03, 1e+00]
Found heuristic solution: objective 30.0000000
Presolve removed 2622 rows and 599 columns
Presolve time: 0.09s
Presolved: 6101 rows, 5084 columns, 21718 nonzeros
Variable types: 2526 continuous, 2558 integer (2558 binary)
Warning: Markowitz tolerance tightened to 0.03125

Root relaxation: objective 1.639899e+00, 4020 iterations, 0.11 seconds (0.19 work units)

    Nodes    |    Current Node    |     Objective Bounds      |     Work
 Expl Unexpl |  Obj  Depth IntInf | Incumbent    BestBd   Gap | It/Node Time

     0     0    1.63990    0  261   30.00000    1.63990  94.5%     -    0s
H    0     0                      24.0000000    1.63990  93.2%     -    0s
H    0     0                      22.0000000    1.63990  92.5%     -    0s
     0     0    1.86766    0  288   22.00000    1.86766  91.5%     -    0s
H    0     0                      12.0000000    1.87136  84.4%     -    0s
     0     0    1.90821    0  299   12.00000    1.90821  84.1%     -    0s
     0     0    2.08500    0  357   12.00000    2.08500  82.6%     -    0s
     0     0    2.12231    0  356   12.00000    2.12231  82.3%     -    0s
     0     0    2.12472    0  371   12.00000    2.12472  82.3%     -    0s
     0     0    2.12553    0  390   12.00000    2.12553  82.3%     -    0s
     0     0    2.19936    0  349   12.00000    2.19936  81.7%     -    1s
H    0     0                      11.0000000    2.20130  80.0%     -    1s
     0     0    2.23688    0  370   11.00000    2.23688  79.7%     -    1s
     0     0    2.28057    0  380   11.00000    2.28057  79.3%     -    1s
     0     0    2.29809    0  415   11.00000    2.29809  79.1%     -    1s
     0     0    2.29873    0  411   11.00000    2.29873  79.1%     -    1s
     0     0    2.29873    0  411   11.00000    2.29873  79.1%     -    1s
     0     0    2.49309    0  346   11.00000    2.49309  77.3%     -    1s
     0     0    2.49851    0  341   11.00000    2.49851  77.3%     -    1s
     0     0    2.50003    0  334   11.00000    2.50003  77.3%     -    1s
     0     0    2.50139    0  354   11.00000    2.50139  77.3%     -    1s
     0     0    2.50139    0  355   11.00000    2.50139  77.3%     -    1s
     0     0    2.54815    0  283   11.00000    2.54815  76.8%     -    1s
H    0     0                      10.0000000    2.54860  74.5%     -    1s
     0     0    2.54860    0  293   10.00000    2.54860  74.5%     -    1s
     0     0    2.55166    0  328   10.00000    2.55166  74.5%     -    1s
     0     0    2.55198    0  330   10.00000    2.55198  74.5%     -    1s
     0     0    2.55198    0  329   10.00000    2.55198  74.5%     -    1s
     0     0    2.57549    0  297   10.00000    2.57549  74.2%     -    1s
H    0     0                       8.0000000    2.57555  67.8%     -    1s
     0     0    2.57619    0  308    8.00000    2.57619  67.8%     -    1s
     0     0    2.57636    0  326    8.00000    2.57636  67.8%     -    1s
     0     0    2.58881    0  386    8.00000    2.58881  67.6%     -    1s
     0     0    2.59124    0  391    8.00000    2.59124  67.6%     -    2s
     0     0    2.59138    0  421    8.00000    2.59138  67.6%     -    2s
     0     0    2.60018    0  483    8.00000    2.60018  67.5%     -    2s
H    0     0                       7.0000000    2.60039  62.9%     -    2s
H    0     0                       6.0000000    2.60039  56.7%     -    2s
     0     0    2.60270    0  442    6.00000    2.60270  56.6%     -    2s
     0     0    2.60319    0  433    6.00000    2.60319  56.6%     -    2s
     0     0    2.60319    0  433    6.00000    2.60319  56.6%     -    2s
     0     0    2.61362    0  400    6.00000    2.61362  56.4%     -    2s
     0     0    2.61409    0  395    6.00000    2.61409  56.4%     -    2s
     0     0    2.61409    0  395    6.00000    2.61409  56.4%     -    2s
     0     0    2.61661    0  420    6.00000    2.61661  56.4%     -    2s
     0     0    2.61708    0  414    6.00000    2.61708  56.4%     -    2s
     0     0    2.61762    0  443    6.00000    2.61762  56.4%     -    2s
     0     0    2.61814    0  409    6.00000    2.61814  56.4%     -    2s
     0     0    2.61814    0  409    6.00000    2.61814  56.4%     -    2s
     0     0    2.62169    0  438    6.00000    2.62169  56.3%     -    2s
     0     0    2.62238    0  431    6.00000    2.62238  56.3%     -    2s
     0     0    2.62370    0  441    6.00000    2.62370  56.3%     -    2s
     0     0    2.62478    0  446    6.00000    2.62478  56.3%     -    2s
     0     0    2.62499    0  453    6.00000    2.62499  56.3%     -    2s
     0     0    2.62862    0  459    6.00000    2.62862  56.2%     -    2s
     0     0    2.63157    0  475    6.00000    2.63157  56.1%     -    2s
     0     0    2.63347    0  439    6.00000    2.63347  56.1%     -    3s
     0     0    2.63396    0  475    6.00000    2.63396  56.1%     -    3s
     0     0    2.63430    0  423    6.00000    2.63430  56.1%     -    3s
     0     0    2.63881    0  466    6.00000    2.63881  56.0%     -    3s
     0     0    2.63931    0  467    6.00000    2.63931  56.0%     -    3s
     0     0    2.63937    0  452    6.00000    2.63937  56.0%     -    3s
     0     0    2.64257    0  490    6.00000    2.64257  56.0%     -    3s
     0     0    2.64328    0  467    6.00000    2.64328  55.9%     -    3s
     0     0    2.64328    0  467    6.00000    2.64328  55.9%     -    3s
     0     0    2.64408    0  503    6.00000    2.64408  55.9%     -    3s
     0     0    2.64505    0  544    6.00000    2.64505  55.9%     -    3s
     0     0    2.64579    0  590    6.00000    2.64579  55.9%     -    3s
     0     0    2.64579    0  490    6.00000    2.64579  55.9%     -    3s
     0     2    2.64588    0  484    6.00000    2.64588  55.9%     -    4s
    26    28    3.29522   19  238    6.00000    2.76153  54.0%   394    5s
   564   480    3.70303   53  490    6.00000    3.02484  49.6%   132   10s
   578   489    4.48628   57  243    6.00000    3.02484  49.6%   129   15s
   607   509    4.32981   59  273    6.00000    3.22909  46.2%   122   21s
H  607   482                       5.0000001    3.22909  35.4%   122   22s
H  607   458                       5.0000000    3.22939  35.4%   122   22s
   657   468    3.57553   29  231    5.00000    3.35297  32.9%   234   25s
   801   456    3.72368   21  188    5.00000    3.36469  32.7%   233   30s
  1051   413    3.64563   33  119    5.00000    3.50000  30.0%   225   35s
  1267   384    4.00000   29   47    5.00000    3.52694  29.5%   225   40s
  1581   361    4.00000   48   81    5.00000    3.59194  28.2%   220   45s
  1914   309    4.00000   32   55    5.00000    3.66667  26.7%   214   50s
  2260   328     cutoff   41         5.00000    3.94448  21.1%   214   55s
  2737   304    4.00000   36   76    5.00000    4.00000  20.0%   212   60s
  3112   298    4.00000   41   25    5.00000    4.00000  20.0%   216   65s
  3527   288    4.00000   42   31    5.00000    4.00000  20.0%   217   70s
  3941   198    4.00000   40   62    5.00000    4.00000  20.0%   219   75s
  4297   160    4.00000   56   50    5.00000    4.00000  20.0%   220   80s
  4551   124    4.00000   55  101    5.00000    4.00000  20.0%   225   85s
  5051   108     cutoff   52         5.00000    4.00000  20.0%   222   90s
  5109   107    4.00000   66   52    5.00000    4.00000  20.0%   222   95s
  5712   117    4.00000   59   66    5.00000    4.00000  20.0%   216  100s
  5992   115    4.00000   65   28    5.00000    4.00000  20.0%   214  105s
  6532    98 infeasible   71         5.00000    4.00000  20.0%   211  110s
  6999    92    4.00000   53   44    5.00000    4.00000  20.0%   212  115s
  7454    71     cutoff   49         5.00000    4.00000  20.0%   210  120s
  7803    42    4.00000   30   38    5.00000    4.00000  20.0%   214  125s
  8179    41    4.00000   58   86    5.00000    4.00000  20.0%   216  130s

Cutting planes:
  Cover: 40
  Implied bound: 59
  MIR: 65
  Flow cover: 47
  GUB cover: 57
  Zero half: 22
  RLT: 77
  Relax-and-lift: 48
  BQP: 71

Explored 8502 nodes (1837665 simplex iterations) in 132.90 seconds (153.53 work units)
Thread count was 1 (of 16 available processors)

Solution count 10: 5 6 7 ... 30

Optimal solution found (tolerance 1.00e-04)
Best objective 5.000000000000e+00, best bound 5.000000000000e+00, gap 0.0000%

User-callback calls 52201, time in user-callback 0.10 sec

 sepatime0 0 0
5.0Stat(MathOptInterface.OPTIMAL, 5.0, 5.0, 0.0, 0.0, 1.220952, 132.89782810211182, 8502, Main.CFLG.LEFPAD, "", #undef)
